# Objective value = 6.4901799999999939e+03
I_0_0 2743
I_0_1 3844
I_0_2 3.3230000000000009e+03
I_0_3 3.0889999999999995e+03
I_0_4 3.4979999999999995e+03
I_0_5 2.9939999999999995e+03
I_0_6 4.0949999999999995e+03
I_1_0 184
I_1_1 92
I_1_2 1.8399999999999997e+02
I_1_3 9.1999999999999986e+01
I_1_4 184
I_1_5 9.1999999999999915e+01
I_1_6 -9.0594198809412774e-14
I_2_0 15
I_2_1 0
I_2_2 15
I_2_3 -2.2065682614424986e-14
I_2_4 1.5000000000000020e+01
I_2_5 15
I_2_6 0
I_3_0 80
I_3_1 0
I_3_2 80
I_3_3 0
I_3_4 80
I_3_5 80
I_3_6 0
I_4_0 176
I_4_1 88
I_4_2 1.7599999999999991e+02
I_4_3 8.7999999999999915e+01
I_4_4 176
I_4_5 88
I_4_6 0
I_5_0 86
I_5_1 43
I_5_2 0
I_5_3 86
I_5_4 43
I_5_5 8.5999999999999986e+01
I_5_6 4.2999999999999979e+01
I_6_0 116
I_6_1 58
I_6_2 5.6843418860808015e-14
I_6_3 1.1599999999999997e+02
I_6_4 5.7999999999999964e+01
I_6_5 116
I_6_6 58
I_7_0 45
I_7_1 0
I_7_2 45
I_7_3 4.4999999999999979e+01
I_7_4 2.1545265571631944e-14
I_7_5 45
I_7_6 0
I_8_0 91
I_8_1 0
I_8_2 91
I_8_3 91
I_8_4 0
I_8_5 91
I_8_6 0
I_9_0 24
I_9_1 12
I_9_2 -7.1054273576010019e-15
I_9_3 2.4000000000000021e+01
I_9_4 1.2000000000000020e+01
I_9_5 24
I_9_6 12
I_10_0 55
I_10_1 1.2212453270876722e-14
I_10_2 55
I_10_3 5.5000000000000071e+01
I_10_4 -7.78543896018391e-14
I_10_5 55
I_10_6 0
I_11_0 78
I_11_1 39
I_11_2 0
I_11_3 78
I_11_4 39
I_11_5 7.7999999999999972e+01
I_11_6 3.8999999999999964e+01
I_12_0 21
I_12_1 0
I_12_2 2.0999999999999659e+01
I_12_3 2.0999999999999982e+01
I_12_4 2.0108914533523148e-14
I_12_5 21
I_12_6 0
I_13_0 91
I_13_1 0
I_13_2 91
I_13_3 9.0999999999999943e+01
I_13_4 -6.0618177144533547e-14
I_13_5 91
I_13_6 0
I_14_0 20
I_14_1 0
I_14_2 20
I_14_3 20
I_14_4 0
I_14_5 20
I_14_6 0
I_15_0 47
I_15_1 0
I_15_2 47
I_15_3 4.6999999999999950e+01
I_15_4 -6.65301147506625e-14
I_15_5 47
I_15_6 0
I_16_0 102
I_16_1 51
I_16_2 0
I_16_3 102
I_16_4 5.1000000000000007e+01
I_16_5 102
I_16_6 51
I_17_0 142
I_17_1 71
I_17_2 142
I_17_3 7.1000000000000028e+01
I_17_4 142
I_17_5 71
I_17_6 0
I_18_0 174
I_18_1 87
I_18_2 0
I_18_3 1.7399999999999997e+02
I_18_4 8.7000000000000028e+01
I_18_5 174
I_18_6 87
I_19_0 72
I_19_1 0
I_19_2 72
I_19_3 72
I_19_4 0
I_19_5 72
I_19_6 0
I_20_0 23
I_20_1 2.5535129566378604e-14
I_20_2 2.2999999999999588e+01
I_20_3 23
I_20_4 0
I_20_5 23
I_20_6 0
q_1_0 0
q_1_1 1.8399999999999997e+02
q_1_2 1.5987211554602254e-14
q_1_3 1.8399999999999994e+02
q_1_4 -9.0594198809412774e-14
q_1_5 0
q_2_0 0
q_2_1 30
q_2_2 -2.2065682614424986e-14
q_2_3 3.0000000000000043e+01
q_2_4 1.4999999999999980e+01
q_2_5 0
q_3_0 0
q_3_1 160
q_3_2 0
q_3_3 160
q_3_4 80
q_3_5 0
q_4_0 0
q_4_1 1.7599999999999991e+02
q_4_2 0
q_4_3 1.7600000000000009e+02
q_4_4 0
q_4_5 0
q_5_0 0
q_5_1 0
q_5_2 129
q_5_3 0
q_5_4 8.5999999999999986e+01
q_5_5 0
q_6_0 0
q_6_1 5.5067062021407764e-14
q_6_2 1.7399999999999991e+02
q_6_3 0
q_6_4 1.1600000000000003e+02
q_6_5 0
q_7_0 0
q_7_1 90
q_7_2 4.4999999999999979e+01
q_7_3 4.2861547644434950e-14
q_7_4 8.9999999999999972e+01
q_7_5 0
q_8_0 0
q_8_1 182
q_8_2 91
q_8_3 0
q_8_4 182
q_8_5 0
q_9_0 0
q_9_1 -1.1990408665951691e-14
q_9_2 3.6000000000000028e+01
q_9_3 0
q_9_4 2.3999999999999979e+01
q_9_5 0
q_10_0 1.2212453270876722e-14
q_10_1 1.0999999999999999e+02
q_10_2 5.5000000000000071e+01
q_10_3 -1.4890866317784912e-13
q_10_4 1.1000000000000009e+02
q_10_5 0
q_11_0 0
q_11_1 0
q_11_2 117
q_11_3 0
q_11_4 7.7999999999999972e+01
q_11_5 0
q_12_0 0
q_12_1 4.1999999999999659e+01
q_12_2 2.1000000000000323e+01
q_12_3 3.7872482927525652e-14
q_12_4 4.1999999999999979e+01
q_12_5 0
q_13_0 0
q_13_1 182
q_13_2 9.0999999999999943e+01
q_13_3 -3.7747582837255322e-15
q_13_4 1.8200000000000006e+02
q_13_5 0
q_14_0 0
q_14_1 40
q_14_2 20
q_14_3 0
q_14_4 40
q_14_5 0
q_15_0 0
q_15_1 94
q_15_2 4.6999999999999950e+01
q_15_3 -1.6792123247455493e-14
q_15_4 9.4000000000000057e+01
q_15_5 0
q_16_0 0
q_16_1 0
q_16_2 153
q_16_3 0
q_16_4 102
q_16_5 0
q_17_0 0
q_17_1 142
q_17_2 3.5527136788005009e-14
q_17_3 1.4199999999999994e+02
q_17_4 0
q_17_5 0
q_18_0 0
q_18_1 -3.9079850466805510e-14
q_18_2 261
q_18_3 0
q_18_4 1.7399999999999997e+02
q_18_5 0
q_19_0 0
q_19_1 144
q_19_2 72
q_19_3 0
q_19_4 144
q_19_5 0
q_20_0 2.5535129566378604e-14
q_20_1 4.5999999999999559e+01
q_20_2 2.3000000000000412e+01
q_20_3 0
q_20_4 46
q_20_5 0
y_0_0 -5.62453756997457e-17
y_0_1 1
y_0_2 1
y_0_3 1
y_0_4 1
y_0_5 0
y_1_0 0
y_1_1 9.9999999999999956e-01
y_1_2 2.0816681711721685e-16
y_1_3 1.0000000000000009e+00
y_1_4 -9.71445146547012e-16
y_1_5 0
y_2_0 0
y_2_1 1
y_2_2 -1.4710455076283324e-15
y_2_3 1.0000000000000013e+00
y_2_4 1
y_2_5 0
y_3_0 0
y_3_1 1
y_3_2 0
y_3_3 1
y_3_4 1
y_3_5 0
y_4_0 0
y_4_1 9.9999999999999956e-01
y_4_2 0
y_4_3 1
y_4_4 0
y_4_5 0
y_5_0 0
y_5_1 0
y_5_2 1
y_5_3 4.5796699765787707e-16
y_5_4 9.9999999999999956e-01
y_5_5 0
y_6_0 0
y_6_1 4.7878367936959876e-16
y_6_2 9.9999999999999956e-01
y_6_3 0
y_6_4 1
y_6_5 0
y_7_0 0
y_7_1 1
y_7_2 9.9999999999999956e-01
y_7_3 4.7878367936959876e-16
y_7_4 1
y_7_5 0
y_8_0 0
y_8_1 1
y_8_2 1
y_8_3 0
y_8_4 1
y_8_5 0
y_9_0 0
y_9_1 -4.9266146717741321e-16
y_9_2 1.0000000000000009e+00
y_9_3 0
y_9_4 1
y_9_5 0
y_10_0 2.2204460492503131e-16
y_10_1 1
y_10_2 1.0000000000000013e+00
y_10_3 -1.4155343563970746e-15
y_10_4 1
y_10_5 0
y_11_0 0
y_11_1 0
y_11_2 1
y_11_3 0
y_11_4 1
y_11_5 0
y_12_0 0
y_12_1 9.9999999999998379e-01
y_12_2 9.9999999999999911e-01
y_12_3 9.5756735873919752e-16
y_12_4 1
y_12_5 0
y_13_0 0
y_13_1 1
y_13_2 9.9999999999999944e-01
y_13_3 -6.6613381477509392e-16
y_13_4 1
y_13_5 0
y_14_0 0
y_14_1 1
y_14_2 1
y_14_3 0
y_14_4 1
y_14_5 0
y_15_0 0
y_15_1 1
y_15_2 9.9999999999999889e-01
y_15_3 -1.4155343563970746e-15
y_15_4 1
y_15_5 0
y_16_0 0
y_16_1 0
y_16_2 1
y_16_3 0
y_16_4 1
y_16_5 0
y_17_0 0
y_17_1 9.9999999999999978e-01
y_17_2 0
y_17_3 1
y_17_4 0
y_17_5 0
y_18_0 0
y_18_1 -2.4980018054066022e-16
y_18_2 9.9999999999999978e-01
y_18_3 0
y_18_4 1
y_18_5 0
y_19_0 0
y_19_1 1
y_19_2 1
y_19_3 0
y_19_4 1
y_19_5 0
y_20_0 1.1102230246251567e-15
y_20_1 0.999999999999982
y_20_2 1
y_20_3 0
y_20_4 1
y_20_5 0
x_0_1_0 0
x_0_1_1 0
x_0_1_2 -4.1633363423443370e-16
x_0_1_3 1.0000000000000018e+00
x_0_1_4 0
x_0_1_5 0
x_0_2_0 5.4776926762769947e-17
x_0_2_1 1.0000000000000004e+00
x_0_2_2 -2.9420910152566648e-15
x_0_2_3 9.9920072216264089e-16
x_0_2_4 1
x_0_2_5 0
x_0_3_0 -8.3340149293735525e-16
x_0_3_1 1
x_0_3_2 0
x_0_3_3 -5.3429483060085659e-16
x_0_3_4 1
x_0_3_5 0
x_0_4_0 0
x_0_4_1 0
x_0_4_2 0
x_0_4_3 1
x_0_4_4 0
x_0_4_5 0
x_0_5_0 0
x_0_5_1 0
x_0_5_2 1
x_0_5_3 0
x_0_5_4 0
x_0_5_5 0
x_0_6_0 0
x_0_6_1 0
x_0_6_2 0
x_0_6_3 0
x_0_6_4 0
x_0_6_5 0
x_0_7_0 0
x_0_7_1 0
x_0_7_2 0
x_0_7_3 0
x_0_7_4 0
x_0_7_5 0
x_0_8_0 0
x_0_8_1 0
x_0_8_2 0
x_0_8_3 0
x_0_8_4 0
x_0_8_5 0
x_0_9_0 0
x_0_9_1 0
x_0_9_2 0
x_0_9_3 0
x_0_9_4 0
x_0_9_5 0
x_0_10_0 0
x_0_10_1 0
x_0_10_2 0
x_0_10_3 0
x_0_10_4 0
x_0_10_5 0
x_0_11_0 0
x_0_11_1 0
x_0_11_2 0
x_0_11_3 0
x_0_11_4 0
x_0_11_5 0
x_0_12_0 0
x_0_12_1 0
x_0_12_2 0
x_0_12_3 0
x_0_12_4 0
x_0_12_5 0
x_0_13_0 0
x_0_13_1 0
x_0_13_2 0
x_0_13_3 0
x_0_13_4 0
x_0_13_5 0
x_0_14_0 0
x_0_14_1 0
x_0_14_2 0
x_0_14_3 0
x_0_14_4 -1.9706458687096529e-15
x_0_14_5 0
x_0_15_0 0
x_0_15_1 0
x_0_15_2 9.9999999999999689e-01
x_0_15_3 -5.6898930012039273e-16
x_0_15_4 1.9428902930940239e-15
x_0_15_5 0
x_0_16_0 0
x_0_16_1 0
x_0_16_2 0
x_0_16_3 0
x_0_16_4 0
x_0_16_5 0
x_0_17_0 0
x_0_17_1 0
x_0_17_2 0
x_0_17_3 -1.7763568394002505e-15
x_0_17_4 0
x_0_17_5 0
x_0_18_0 0
x_0_18_1 0
x_0_18_2 0
x_0_18_3 0
x_0_18_4 0
x_0_18_5 0
x_0_19_0 0
x_0_19_1 0
x_0_19_2 0
x_0_19_3 0
x_0_19_4 0
x_0_19_5 0
x_0_20_0 0
x_0_20_1 0
x_0_20_2 0
x_0_20_3 0
x_0_20_4 0
x_0_20_5 0
x_1_2_0 0
x_1_2_1 9.9999999999999956e-01
x_1_2_2 0
x_1_2_3 0
x_1_2_4 -9.71445146547012e-16
x_1_2_5 0
x_1_3_0 0
x_1_3_1 0
x_1_3_2 0
x_1_3_3 0
x_1_3_4 0
x_1_3_5 0
x_1_4_0 0
x_1_4_1 0
x_1_4_2 0
x_1_4_3 0
x_1_4_4 0
x_1_4_5 0
x_1_5_0 0
x_1_5_1 0
x_1_5_2 0
x_1_5_3 0
x_1_5_4 0
x_1_5_5 0
x_1_6_0 0
x_1_6_1 0
x_1_6_2 0
x_1_6_3 0
x_1_6_4 0
x_1_6_5 0
x_1_7_0 0
x_1_7_1 0
x_1_7_2 0
x_1_7_3 0
x_1_7_4 0
x_1_7_5 0
x_1_8_0 0
x_1_8_1 0
x_1_8_2 0
x_1_8_3 0
x_1_8_4 0
x_1_8_5 0
x_1_9_0 0
x_1_9_1 0
x_1_9_2 0
x_1_9_3 0
x_1_9_4 0
x_1_9_5 0
x_1_10_0 0
x_1_10_1 0
x_1_10_2 0
x_1_10_3 0
x_1_10_4 0
x_1_10_5 0
x_1_11_0 0
x_1_11_1 0
x_1_11_2 0
x_1_11_3 0
x_1_11_4 0
x_1_11_5 0
x_1_12_0 0
x_1_12_1 0
x_1_12_2 0
x_1_12_3 0
x_1_12_4 0
x_1_12_5 0
x_1_13_0 0
x_1_13_1 0
x_1_13_2 0
x_1_13_3 0
x_1_13_4 0
x_1_13_5 0
x_1_14_0 0
x_1_14_1 0
x_1_14_2 0
x_1_14_3 0
x_1_14_4 0
x_1_14_5 0
x_1_15_0 0
x_1_15_1 -1.3600232051658168e-15
x_1_15_2 0
x_1_15_3 0
x_1_15_4 -9.71445146547012e-16
x_1_15_5 0
x_1_16_0 0
x_1_16_1 0
x_1_16_2 0
x_1_16_3 0
x_1_16_4 0
x_1_16_5 0
x_1_17_0 0
x_1_17_1 1.0000000000000009e+00
x_1_17_2 1.0547118733938987e-15
x_1_17_3 1
x_1_17_4 0
x_1_17_5 0
x_1_18_0 0
x_1_18_1 0
x_1_18_2 0
x_1_18_3 0
x_1_18_4 0
x_1_18_5 0
x_1_19_0 0
x_1_19_1 0
x_1_19_2 0
x_1_19_3 0
x_1_19_4 0
x_1_19_5 0
x_1_20_0 0
x_1_20_1 0
x_1_20_2 0
x_1_20_3 0
x_1_20_4 0
x_1_20_5 0
x_2_3_0 -5.4776926762769947e-17
x_2_3_1 3.6082248300317588e-16
x_2_3_2 0
x_2_3_3 1.0000000000000004e+00
x_2_3_4 0
x_2_3_5 0
x_2_4_0 0
x_2_4_1 0
x_2_4_2 0
x_2_4_3 0
x_2_4_4 0
x_2_4_5 0
x_2_5_0 0
x_2_5_1 0
x_2_5_2 0
x_2_5_3 0
x_2_5_4 0
x_2_5_5 0
x_2_6_0 0
x_2_6_1 0
x_2_6_2 0
x_2_6_3 0
x_2_6_4 0
x_2_6_5 0
x_2_7_0 0
x_2_7_1 0
x_2_7_2 0
x_2_7_3 0
x_2_7_4 0
x_2_7_5 0
x_2_8_0 0
x_2_8_1 0
x_2_8_2 0
x_2_8_3 0
x_2_8_4 0
x_2_8_5 0
x_2_9_0 0
x_2_9_1 0
x_2_9_2 0
x_2_9_3 0
x_2_9_4 0
x_2_9_5 0
x_2_10_0 0
x_2_10_1 0
x_2_10_2 0
x_2_10_3 0
x_2_10_4 0
x_2_10_5 0
x_2_11_0 0
x_2_11_1 0
x_2_11_2 0
x_2_11_3 0
x_2_11_4 0
x_2_11_5 0
x_2_12_0 0
x_2_12_1 0
x_2_12_2 0
x_2_12_3 0
x_2_12_4 0
x_2_12_5 0
x_2_13_0 0
x_2_13_1 0
x_2_13_2 0
x_2_13_3 0
x_2_13_4 0
x_2_13_5 0
x_2_14_0 0
x_2_14_1 0
x_2_14_2 0
x_2_14_3 0
x_2_14_4 0
x_2_14_5 0
x_2_15_0 0
x_2_15_1 0
x_2_15_2 0
x_2_15_3 0
x_2_15_4 0
x_2_15_5 0
x_2_16_0 0
x_2_16_1 -7.0776717819853729e-16
x_2_16_2 0
x_2_16_3 0
x_2_16_4 1.0000000000000009e+00
x_2_16_5 0
x_2_17_0 0
x_2_17_1 0
x_2_17_2 0
x_2_17_3 1.0000000000000013e+00
x_2_17_4 0
x_2_17_5 0
x_2_18_0 0
x_2_18_1 0
x_2_18_2 0
x_2_18_3 0
x_2_18_4 0
x_2_18_5 0
x_2_19_0 0
x_2_19_1 0
x_2_19_2 0
x_2_19_3 0
x_2_19_4 0
x_2_19_5 0
x_2_20_0 0
x_2_20_1 0
x_2_20_2 0
x_2_20_3 0
x_2_20_4 0
x_2_20_5 0
x_3_4_0 0
x_3_4_1 9.9999999999999956e-01
x_3_4_2 0
x_3_4_3 1
x_3_4_4 0
x_3_4_5 0
x_3_5_0 0
x_3_5_1 0
x_3_5_2 0
x_3_5_3 0
x_3_5_4 9.9999999999999856e-01
x_3_5_5 0
x_3_6_0 0
x_3_6_1 0
x_3_6_2 0
x_3_6_3 0
x_3_6_4 4.5102810375396984e-16
x_3_6_5 0
x_3_7_0 0
x_3_7_1 -4.7878367936959876e-16
x_3_7_2 0
x_3_7_3 0
x_3_7_4 9.8532293435482643e-16
x_3_7_5 0
x_3_8_0 0
x_3_8_1 0
x_3_8_2 0
x_3_8_3 0
x_3_8_4 0
x_3_8_5 0
x_3_9_0 0
x_3_9_1 0
x_3_9_2 0
x_3_9_3 0
x_3_9_4 0
x_3_9_5 0
x_3_10_0 0
x_3_10_1 0
x_3_10_2 0
x_3_10_3 0
x_3_10_4 0
x_3_10_5 0
x_3_11_0 0
x_3_11_1 0
x_3_11_2 0
x_3_11_3 0
x_3_11_4 0
x_3_11_5 0
x_3_12_0 0
x_3_12_1 0
x_3_12_2 0
x_3_12_3 0
x_3_12_4 0
x_3_12_5 0
x_3_13_0 0
x_3_13_1 0
x_3_13_2 0
x_3_13_3 0
x_3_13_4 0
x_3_13_5 0
x_3_14_0 0
x_3_14_1 0
x_3_14_2 0
x_3_14_3 0
x_3_14_4 0
x_3_14_5 0
x_3_15_0 0
x_3_15_1 0
x_3_15_2 0
x_3_15_3 0
x_3_15_4 0
x_3_15_5 0
x_3_16_0 0
x_3_16_1 0
x_3_16_2 0
x_3_16_3 0
x_3_16_4 0
x_3_16_5 0
x_3_17_0 0
x_3_17_1 0
x_3_17_2 0
x_3_17_3 0
x_3_17_4 0
x_3_17_5 0
x_3_18_0 0
x_3_18_1 0
x_3_18_2 0
x_3_18_3 0
x_3_18_4 0
x_3_18_5 0
x_3_19_0 0
x_3_19_1 0
x_3_19_2 0
x_3_19_3 0
x_3_19_4 0
x_3_19_5 0
x_3_20_0 0
x_3_20_1 0
x_3_20_2 0
x_3_20_3 0
x_3_20_4 0
x_3_20_5 0
x_4_5_0 0
x_4_5_1 0
x_4_5_2 0
x_4_5_3 0
x_4_5_4 0
x_4_5_5 0
x_4_6_0 0
x_4_6_1 0
x_4_6_2 0
x_4_6_3 0
x_4_6_4 0
x_4_6_5 0
x_4_7_0 0
x_4_7_1 9.9999999999999956e-01
x_4_7_2 0
x_4_7_3 0
x_4_7_4 0
x_4_7_5 0
x_4_8_0 0
x_4_8_1 0
x_4_8_2 0
x_4_8_3 0
x_4_8_4 0
x_4_8_5 0
x_4_9_0 0
x_4_9_1 0
x_4_9_2 0
x_4_9_3 0
x_4_9_4 0
x_4_9_5 0
x_4_10_0 0
x_4_10_1 0
x_4_10_2 0
x_4_10_3 0
x_4_10_4 0
x_4_10_5 0
x_4_11_0 0
x_4_11_1 0
x_4_11_2 0
x_4_11_3 0
x_4_11_4 0
x_4_11_5 0
x_4_12_0 0
x_4_12_1 0
x_4_12_2 0
x_4_12_3 0
x_4_12_4 0
x_4_12_5 0
x_4_13_0 0
x_4_13_1 0
x_4_13_2 0
x_4_13_3 0
x_4_13_4 0
x_4_13_5 0
x_4_14_0 0
x_4_14_1 0
x_4_14_2 0
x_4_14_3 0
x_4_14_4 0
x_4_14_5 0
x_4_15_0 0
x_4_15_1 0
x_4_15_2 0
x_4_15_3 0
x_4_15_4 0
x_4_15_5 0
x_4_16_0 0
x_4_16_1 0
x_4_16_2 0
x_4_16_3 0
x_4_16_4 0
x_4_16_5 0
x_4_17_0 0
x_4_17_1 0
x_4_17_2 0
x_4_17_3 0
x_4_17_4 0
x_4_17_5 0
x_4_18_0 0
x_4_18_1 0
x_4_18_2 0
x_4_18_3 0
x_4_18_4 0
x_4_18_5 0
x_4_19_0 0
x_4_19_1 0
x_4_19_2 0
x_4_19_3 0
x_4_19_4 0
x_4_19_5 0
x_4_20_0 0
x_4_20_1 0
x_4_20_2 0
x_4_20_3 0
x_4_20_4 0
x_4_20_5 0
x_5_6_0 0
x_5_6_1 0
x_5_6_2 0.999999999999999
x_5_6_3 0
x_5_6_4 1.0000000000000007e+00
x_5_6_5 0
x_5_7_0 0
x_5_7_1 0
x_5_7_2 -4.7878367936959876e-16
x_5_7_3 4.5796699765787707e-16
x_5_7_4 0
x_5_7_5 0
x_5_8_0 0
x_5_8_1 0
x_5_8_2 0
x_5_8_3 0
x_5_8_4 0
x_5_8_5 0
x_5_9_0 0
x_5_9_1 0
x_5_9_2 0
x_5_9_3 4.5796699765787707e-16
x_5_9_4 0
x_5_9_5 0
x_5_10_0 0
x_5_10_1 0
x_5_10_2 0
x_5_10_3 0
x_5_10_4 0
x_5_10_5 0
x_5_11_0 0
x_5_11_1 0
x_5_11_2 0
x_5_11_3 0
x_5_11_4 0
x_5_11_5 0
x_5_12_0 0
x_5_12_1 0
x_5_12_2 0
x_5_12_3 0
x_5_12_4 0
x_5_12_5 0
x_5_13_0 0
x_5_13_1 0
x_5_13_2 0
x_5_13_3 0
x_5_13_4 0
x_5_13_5 0
x_5_14_0 0
x_5_14_1 0
x_5_14_2 9.71445146547012e-16
x_5_14_3 0
x_5_14_4 0
x_5_14_5 0
x_5_15_0 0
x_5_15_1 0
x_5_15_2 0
x_5_15_3 0
x_5_15_4 0
x_5_15_5 0
x_5_16_0 0
x_5_16_1 0
x_5_16_2 0
x_5_16_3 0
x_5_16_4 0
x_5_16_5 0
x_5_17_0 0
x_5_17_1 0
x_5_17_2 0
x_5_17_3 0
x_5_17_4 0
x_5_17_5 0
x_5_18_0 0
x_5_18_1 0
x_5_18_2 0
x_5_18_3 0
x_5_18_4 0
x_5_18_5 0
x_5_19_0 0
x_5_19_1 0
x_5_19_2 0
x_5_19_3 0
x_5_19_4 0
x_5_19_5 0
x_5_20_0 0
x_5_20_1 0
x_5_20_2 0
x_5_20_3 0
x_5_20_4 0
x_5_20_5 0
x_6_7_0 0
x_6_7_1 4.7878367936959876e-16
x_6_7_2 1.0000000000000004e+00
x_6_7_3 0
x_6_7_4 0.999999999999999
x_6_7_5 0
x_6_8_0 0
x_6_8_1 0
x_6_8_2 0
x_6_8_3 0
x_6_8_4 0
x_6_8_5 0
x_6_9_0 0
x_6_9_1 0
x_6_9_2 0
x_6_9_3 0
x_6_9_4 0
x_6_9_5 0
x_6_10_0 0
x_6_10_1 0
x_6_10_2 0
x_6_10_3 0
x_6_10_4 0
x_6_10_5 0
x_6_11_0 0
x_6_11_1 0
x_6_11_2 0
x_6_11_3 0
x_6_11_4 0
x_6_11_5 0
x_6_12_0 0
x_6_12_1 0
x_6_12_2 0
x_6_12_3 0
x_6_12_4 0
x_6_12_5 0
x_6_13_0 0
x_6_13_1 0
x_6_13_2 0
x_6_13_3 0
x_6_13_4 0
x_6_13_5 0
x_6_14_0 0
x_6_14_1 4.7878367936959876e-16
x_6_14_2 -4.7878367936959876e-16
x_6_14_3 0
x_6_14_4 0
x_6_14_5 0
x_6_15_0 0
x_6_15_1 0
x_6_15_2 0
x_6_15_3 0
x_6_15_4 0
x_6_15_5 0
x_6_16_0 0
x_6_16_1 0
x_6_16_2 0
x_6_16_3 0
x_6_16_4 0
x_6_16_5 0
x_6_17_0 0
x_6_17_1 0
x_6_17_2 0
x_6_17_3 0
x_6_17_4 0
x_6_17_5 0
x_6_18_0 0
x_6_18_1 0
x_6_18_2 0
x_6_18_3 0
x_6_18_4 0
x_6_18_5 0
x_6_19_0 0
x_6_19_1 0
x_6_19_2 0
x_6_19_3 0
x_6_19_4 0
x_6_19_5 0
x_6_20_0 0
x_6_20_1 0
x_6_20_2 0
x_6_20_3 0
x_6_20_4 0
x_6_20_5 0
x_7_8_0 0
x_7_8_1 1
x_7_8_2 9.9999999999999911e-01
x_7_8_3 4.7878367936959876e-16
x_7_8_4 1
x_7_8_5 0
x_7_9_0 0
x_7_9_1 0
x_7_9_2 0
x_7_9_3 0
x_7_9_4 0
x_7_9_5 0
x_7_10_0 0
x_7_10_1 0
x_7_10_2 0
x_7_10_3 0
x_7_10_4 0
x_7_10_5 0
x_7_11_0 0
x_7_11_1 0
x_7_11_2 0
x_7_11_3 0
x_7_11_4 0
x_7_11_5 0
x_7_12_0 0
x_7_12_1 0
x_7_12_2 0
x_7_12_3 0
x_7_12_4 0
x_7_12_5 0
x_7_13_0 0
x_7_13_1 0
x_7_13_2 0
x_7_13_3 0
x_7_13_4 0
x_7_13_5 0
x_7_14_0 0
x_7_14_1 0
x_7_14_2 0
x_7_14_3 0
x_7_14_4 0
x_7_14_5 0
x_7_15_0 0
x_7_15_1 0
x_7_15_2 0
x_7_15_3 0
x_7_15_4 0
x_7_15_5 0
x_7_16_0 0
x_7_16_1 0
x_7_16_2 0
x_7_16_3 0
x_7_16_4 0
x_7_16_5 0
x_7_17_0 0
x_7_17_1 0
x_7_17_2 0
x_7_17_3 0
x_7_17_4 0
x_7_17_5 0
x_7_18_0 0
x_7_18_1 0
x_7_18_2 0
x_7_18_3 0
x_7_18_4 0
x_7_18_5 0
x_7_19_0 0
x_7_19_1 0
x_7_19_2 0
x_7_19_3 0
x_7_19_4 0
x_7_19_5 0
x_7_20_0 0
x_7_20_1 0
x_7_20_2 0
x_7_20_3 0
x_7_20_4 0
x_7_20_5 0
x_8_9_0 0
x_8_9_1 -4.9266146717741321e-16
x_8_9_2 1.0000000000000009e+00
x_8_9_3 0
x_8_9_4 1.0000000000000009e+00
x_8_9_5 0
x_8_10_0 0
x_8_10_1 1.0000000000000004e+00
x_8_10_2 0
x_8_10_3 -4.5102810375396984e-16
x_8_10_4 -9.8532293435482643e-16
x_8_10_5 0
x_8_11_0 0
x_8_11_1 0
x_8_11_2 0
x_8_11_3 0
x_8_11_4 0
x_8_11_5 0
x_8_12_0 0
x_8_12_1 0
x_8_12_2 0
x_8_12_3 0
x_8_12_4 0
x_8_12_5 0
x_8_13_0 0
x_8_13_1 0
x_8_13_2 0
x_8_13_3 0
x_8_13_4 0
x_8_13_5 0
x_8_14_0 0
x_8_14_1 0
x_8_14_2 0
x_8_14_3 0
x_8_14_4 0
x_8_14_5 0
x_8_15_0 0
x_8_15_1 0
x_8_15_2 0
x_8_15_3 0
x_8_15_4 0
x_8_15_5 0
x_8_16_0 0
x_8_16_1 0
x_8_16_2 0
x_8_16_3 0
x_8_16_4 0
x_8_16_5 0
x_8_17_0 0
x_8_17_1 0
x_8_17_2 0
x_8_17_3 0
x_8_17_4 0
x_8_17_5 0
x_8_18_0 0
x_8_18_1 0
x_8_18_2 0
x_8_18_3 0
x_8_18_4 0
x_8_18_5 0
x_8_19_0 0
x_8_19_1 0
x_8_19_2 0
x_8_19_3 0
x_8_19_4 0
x_8_19_5 0
x_8_20_0 0
x_8_20_1 0
x_8_20_2 0
x_8_20_3 0
x_8_20_4 0
x_8_20_5 0
x_9_10_0 0
x_9_10_1 -4.9266146717741321e-16
x_9_10_2 1.0000000000000007e+00
x_9_10_3 -4.5102810375396984e-16
x_9_10_4 1.0000000000000009e+00
x_9_10_5 0
x_9_11_0 0
x_9_11_1 0
x_9_11_2 0
x_9_11_3 0
x_9_11_4 0
x_9_11_5 0
x_9_12_0 0
x_9_12_1 0
x_9_12_2 0
x_9_12_3 0
x_9_12_4 0
x_9_12_5 0
x_9_13_0 0
x_9_13_1 0
x_9_13_2 0
x_9_13_3 0
x_9_13_4 0
x_9_13_5 0
x_9_14_0 0
x_9_14_1 0
x_9_14_2 -1.4155343563970746e-15
x_9_14_3 0
x_9_14_4 -1.9706458687096529e-15
x_9_14_5 0
x_9_15_0 0
x_9_15_1 0
x_9_15_2 0
x_9_15_3 0
x_9_15_4 0
x_9_15_5 0
x_9_16_0 0
x_9_16_1 0
x_9_16_2 0
x_9_16_3 0
x_9_16_4 0
x_9_16_5 0
x_9_17_0 0
x_9_17_1 0
x_9_17_2 0
x_9_17_3 0
x_9_17_4 0
x_9_17_5 0
x_9_18_0 0
x_9_18_1 0
x_9_18_2 0
x_9_18_3 0
x_9_18_4 0
x_9_18_5 0
x_9_19_0 0
x_9_19_1 0
x_9_19_2 0
x_9_19_3 0
x_9_19_4 0
x_9_19_5 0
x_9_20_0 0
x_9_20_1 0
x_9_20_2 0
x_9_20_3 0
x_9_20_4 0
x_9_20_5 0
x_10_11_0 0
x_10_11_1 0
x_10_11_2 9.71445146547012e-16
x_10_11_3 -2.4424906541753444e-15
x_10_11_4 -1.9706458687096529e-15
x_10_11_5 0
x_10_12_0 4.4408920985006262e-16
x_10_12_1 3.4694469519536142e-17
x_10_12_2 0
x_10_12_3 4.85722573273506e-16
x_10_12_4 -1.9706458687096529e-15
x_10_12_5 0
x_10_13_0 0
x_10_13_1 0
x_10_13_2 0
x_10_13_3 0
x_10_13_4 0
x_10_13_5 0
x_10_14_0 0
x_10_14_1 1
x_10_14_2 1
x_10_14_3 0
x_10_14_4 1.0000000000000040e+00
x_10_14_5 0
x_10_15_0 0
x_10_15_1 0
x_10_15_2 0
x_10_15_3 0
x_10_15_4 0
x_10_15_5 0
x_10_16_0 0
x_10_16_1 0
x_10_16_2 0
x_10_16_3 0
x_10_16_4 0
x_10_16_5 0
x_10_17_0 0
x_10_17_1 0
x_10_17_2 0
x_10_17_3 0
x_10_17_4 0
x_10_17_5 0
x_10_18_0 0
x_10_18_1 0
x_10_18_2 0
x_10_18_3 0
x_10_18_4 0
x_10_18_5 0
x_10_19_0 0
x_10_19_1 0
x_10_19_2 0
x_10_19_3 0
x_10_19_4 0
x_10_19_5 0
x_10_20_0 0
x_10_20_1 0
x_10_20_2 0
x_10_20_3 0
x_10_20_4 0
x_10_20_5 0
x_11_12_0 0
x_11_12_1 0
x_11_12_2 9.9999999999999911e-01
x_11_12_3 1.4155343563970746e-15
x_11_12_4 1
x_11_12_5 0
x_11_13_0 0
x_11_13_1 0
x_11_13_2 9.9999999999999845e-01
x_11_13_3 3.6776137690708310e-16
x_11_13_4 1.0000000000000018e+00
x_11_13_5 0
x_11_14_0 0
x_11_14_1 0
x_11_14_2 3.1225022567582528e-16
x_11_14_3 0
x_11_14_4 0
x_11_14_5 0
x_11_15_0 0
x_11_15_1 0
x_11_15_2 0
x_11_15_3 0
x_11_15_4 0
x_11_15_5 0
x_11_16_0 0
x_11_16_1 0
x_11_16_2 0
x_11_16_3 0
x_11_16_4 0
x_11_16_5 0
x_11_17_0 0
x_11_17_1 0
x_11_17_2 0
x_11_17_3 0
x_11_17_4 0
x_11_17_5 0
x_11_18_0 0
x_11_18_1 0
x_11_18_2 0
x_11_18_3 0
x_11_18_4 0
x_11_18_5 0
x_11_19_0 0
x_11_19_1 0
x_11_19_2 0
x_11_19_3 5.9674487573602164e-16
x_11_19_4 0
x_11_19_5 0
x_11_20_0 0
x_11_20_1 0
x_11_20_2 0
x_11_20_3 0
x_11_20_4 0
x_11_20_5 0
x_12_13_0 0
x_12_13_1 9.9999999999999956e-01
x_12_13_2 0
x_12_13_3 0
x_12_13_4 0
x_12_13_5 0
x_12_14_0 0
x_12_14_1 0
x_12_14_2 0
x_12_14_3 0
x_12_14_4 0
x_12_14_5 0
x_12_15_0 0
x_12_15_1 0
x_12_15_2 0
x_12_15_3 0
x_12_15_4 0
x_12_15_5 0
x_12_16_0 0
x_12_16_1 0
x_12_16_2 0
x_12_16_3 0
x_12_16_4 0
x_12_16_5 0
x_12_17_0 0
x_12_17_1 0
x_12_17_2 0
x_12_17_3 0
x_12_17_4 0
x_12_17_5 0
x_12_18_0 0
x_12_18_1 0
x_12_18_2 0
x_12_18_3 0
x_12_18_4 0
x_12_18_5 0
x_12_19_0 0
x_12_19_1 0
x_12_19_2 0
x_12_19_3 0
x_12_19_4 0
x_12_19_5 0
x_12_20_0 2.2204460492503135e-15
x_12_20_1 9.9999999999996536e-01
x_12_20_2 9.9999999999999911e-01
x_12_20_3 0
x_12_20_4 1.0000000000000020e+00
x_12_20_5 0
x_13_14_0 0
x_13_14_1 9.9999999999999989e-01
x_13_14_2 9.9999999999999944e-01
x_13_14_3 0
x_13_14_4 1
x_13_14_5 0
x_13_15_0 0
x_13_15_1 0
x_13_15_2 0
x_13_15_3 -1.0824674490095276e-15
x_13_15_4 0
x_13_15_5 0
x_13_16_0 0
x_13_16_1 0
x_13_16_2 0
x_13_16_3 0
x_13_16_4 0
x_13_16_5 0
x_13_17_0 0
x_13_17_1 0
x_13_17_2 0
x_13_17_3 0
x_13_17_4 0
x_13_17_5 0
x_13_18_0 0
x_13_18_1 0
x_13_18_2 0
x_13_18_3 0
x_13_18_4 0
x_13_18_5 0
x_13_19_0 0
x_13_19_1 4.7878367936959876e-16
x_13_19_2 0
x_13_19_3 -5.9674487573602164e-16
x_13_19_4 0
x_13_19_5 0
x_13_20_0 0
x_13_20_1 4.4408920985006262e-16
x_13_20_2 9.5756735873919752e-16
x_13_20_3 0
x_13_20_4 -1.9706458687096529e-15
x_13_20_5 0
x_14_15_0 0
x_14_15_1 0
x_14_15_2 0
x_14_15_3 0
x_14_15_4 0
x_14_15_5 0
x_14_16_0 0
x_14_16_1 0
x_14_16_2 0
x_14_16_3 0
x_14_16_4 0
x_14_16_5 0
x_14_17_0 0
x_14_17_1 0
x_14_17_2 0
x_14_17_3 0
x_14_17_4 0
x_14_17_5 0
x_14_18_0 0
x_14_18_1 0
x_14_18_2 0
x_14_18_3 0
x_14_18_4 0
x_14_18_5 0
x_14_19_0 0
x_14_19_1 0
x_14_19_2 0
x_14_19_3 0
x_14_19_4 0
x_14_19_5 0
x_14_20_0 0
x_14_20_1 0
x_14_20_2 0
x_14_20_3 0
x_14_20_4 0
x_14_20_5 0
x_15_16_0 0
x_15_16_1 1.1102230246251565e-16
x_15_16_2 1.0000000000000009e+00
x_15_16_3 -7.6327832942979512e-16
x_15_16_4 0.999999999999999
x_15_16_5 0
x_15_17_0 0
x_15_17_1 1.0000000000000004e+00
x_15_17_2 0
x_15_17_3 0
x_15_17_4 0
x_15_17_5 0
x_15_18_0 0
x_15_18_1 -2.4980018054066022e-16
x_15_18_2 5.5511151231257827e-17
x_15_18_3 -4.0245584642661925e-16
x_15_18_4 1
x_15_18_5 0
x_15_19_0 0
x_15_19_1 9.9999999999999978e-01
x_15_19_2 -2.3592239273284576e-16
x_15_19_3 0
x_15_19_4 0
x_15_19_5 0
x_15_20_0 0
x_15_20_1 0
x_15_20_2 0
x_15_20_3 0
x_15_20_4 0
x_15_20_5 0
x_16_17_0 0
x_16_17_1 9.2981178312356860e-16
x_16_17_2 -8.3266726846886741e-16
x_16_17_3 3.6776137690708310e-16
x_16_17_4 0
x_16_17_5 0
x_16_18_0 0
x_16_18_1 0
x_16_18_2 1
x_16_18_3 4.0245584642661925e-16
x_16_18_4 0
x_16_18_5 0
x_16_19_0 0
x_16_19_1 0
x_16_19_2 0
x_16_19_3 0
x_16_19_4 0
x_16_19_5 0
x_16_20_0 0
x_16_20_1 0
x_16_20_2 0
x_16_20_3 0
x_16_20_4 0
x_16_20_5 0
x_17_18_0 0
x_17_18_1 0
x_17_18_2 0
x_17_18_3 0
x_17_18_4 0
x_17_18_5 0
x_17_19_0 0
x_17_19_1 0
x_17_19_2 0
x_17_19_3 0
x_17_19_4 0
x_17_19_5 0
x_17_20_0 0
x_17_20_1 0
x_17_20_2 0
x_17_20_3 0
x_17_20_4 0
x_17_20_5 0
x_18_19_0 0
x_18_19_1 -2.4980018054066022e-16
x_18_19_2 9.9999999999999978e-01
x_18_19_3 0
x_18_19_4 1
x_18_19_5 0
x_18_20_0 0
x_18_20_1 0
x_18_20_2 0
x_18_20_3 0
x_18_20_4 0
x_18_20_5 0
x_19_20_0 0
x_19_20_1 1
x_19_20_2 1
x_19_20_3 0
x_19_20_4 1
x_19_20_5 0
